p cnf 1461
-22 -456
-23 -459
-24 -462
-25 -465
-26 -468
-27 -471
-28 -474
-29 -477
-30 -480
-31 -483
-32 -486
-33 -489
-34 -492
-35 -495
-36 -498
-37 -501
-38 -504
-39 -507
-40 -510
-41 -513
-42 -516
-43 517
-44 518
-45 519
-46 520
-47 521
-48 522
-49 523
-50 524
-51 525
-52 526
-53 527
-54 -23
-54 -24
23 24 54
-55 -25
-55 -26
25 26 55
-56 -27
-56 -28
27 28 56
-57 -29
-57 -30
29 30 57
-58 -31
-58 -32
31 32 58
-59 -33
-59 -34
33 34 59
-60 -35
-60 -36
35 36 60
-61 -37
-61 -38
37 38 61
-62 -39
-62 -40
39 40 62
-63 -41
-63 -42
41 42 63
-64 -43
-64 -44
43 44 64
-65 -45
-65 -46
45 46 65
-66 -47
-66 -48
47 48 66
-67 -49
-67 -50
49 50 67
-68 -51
-68 -52
51 52 68
-69 54
-69 55
-54 -55 69
-70 56
-70 57
-56 -57 70
-71 58
-71 59
-58 -59 71
-72 60
-72 61
-60 -61 72
-73 62
-73 63
-62 -63 73
-74 64
-74 65
-64 -65 74
-75 66
-75 67
-66 -67 75
-76 -53
-76 68
53 -68 76
-77 69
-77 70
-69 -70 77
-78 71
-78 72
-71 -72 78
-79 73
-79 74
-73 -74 79
-80 75
-80 76
-75 -76 80
-81 77
-81 78
-77 -78 81
-82 79
-82 80
-79 -80 82
-83 81
-83 82
-81 -82 83
-84 -22
-84 23
22 -23 84
-85 22
-85 -23
-22 23 85
-86 -84
-86 -85
84 85 86
-87 22
-87 23
-22 -23 87
-88 -22
-88 -86
22 86 88
-89 22
-89 86
-22 -86 89
-90 -88
-90 -89
88 89 90
-91 22
-91 -86
-22 86 91
-92 -87
-92 -91
87 91 92
-93 -23
-93 24
23 -24 93
-94 23
-94 -24
-23 24 94
-95 -93
-95 -94
93 94 95
-96 23
-96 24
-23 -24 96
-97 92
-97 -95
-92 95 97
-98 -92
-98 95
92 -95 98
-99 -97
-99 -98
97 98 99
-100 -92
-100 -95
92 95 100
-101 -96
-101 -100
96 100 101
-102 -24
-102 25
24 -25 102
-103 24
-103 -25
-24 25 103
-104 -102
-104 -103
102 103 104
-105 24
-105 25
-24 -25 105
-106 101
-106 -104
-101 104 106
-107 -101
-107 104
101 -104 107
-108 -106
-108 -107
106 107 108
-109 -101
-109 -104
101 104 109
-110 -105
-110 -109
105 109 110
-111 -25
-111 26
25 -26 111
-112 25
-112 -26
-25 26 112
-113 -111
-113 -112
111 112 113
-114 25
-114 26
-25 -26 114
-115 110
-115 -113
-110 113 115
-116 -110
-116 113
110 -113 116
-117 -115
-117 -116
115 116 117
-118 -110
-118 -113
110 113 118
-119 -114
-119 -118
114 118 119
-120 -26
-120 27
26 -27 120
-121 26
-121 -27
-26 27 121
-122 -120
-122 -121
120 121 122
-123 26
-123 27
-26 -27 123
-124 119
-124 -122
-119 122 124
-125 -119
-125 122
119 -122 125
-126 -124
-126 -125
124 125 126
-127 -119
-127 -122
119 122 127
-128 -123
-128 -127
123 127 128
-129 -27
-129 28
27 -28 129
-130 27
-130 -28
-27 28 130
-131 -129
-131 -130
129 130 131
-132 27
-132 28
-27 -28 132
-133 128
-133 -131
-128 131 133
-134 -128
-134 131
128 -131 134
-135 -133
-135 -134
133 134 135
-136 -128
-136 -131
128 131 136
-137 -132
-137 -136
132 136 137
-138 -28
-138 29
28 -29 138
-139 28
-139 -29
-28 29 139
-140 -138
-140 -139
138 139 140
-141 28
-141 29
-28 -29 141
-142 137
-142 -140
-137 140 142
-143 -137
-143 140
137 -140 143
-144 -142
-144 -143
142 143 144
-145 -137
-145 -140
137 140 145
-146 -141
-146 -145
141 145 146
-147 -29
-147 30
29 -30 147
-148 29
-148 -30
-29 30 148
-149 -147
-149 -148
147 148 149
-150 29
-150 30
-29 -30 150
-151 146
-151 -149
-146 149 151
-152 -146
-152 149
146 -149 152
-153 -151
-153 -152
151 152 153
-154 -146
-154 -149
146 149 154
-155 -150
-155 -154
150 154 155
-156 -30
-156 31
30 -31 156
-157 30
-157 -31
-30 31 157
-158 -156
-158 -157
156 157 158
-159 30
-159 31
-30 -31 159
-160 155
-160 -158
-155 158 160
-161 -155
-161 158
155 -158 161
-162 -160
-162 -161
160 161 162
-163 -155
-163 -158
155 158 163
-164 -159
-164 -163
159 163 164
-165 -31
-165 32
31 -32 165
-166 31
-166 -32
-31 32 166
-167 -165
-167 -166
165 166 167
-168 31
-168 32
-31 -32 168
-169 164
-169 -167
-164 167 169
-170 -164
-170 167
164 -167 170
-171 -169
-171 -170
169 170 171
-172 -164
-172 -167
164 167 172
-173 -168
-173 -172
168 172 173
-174 -32
-174 33
32 -33 174
-175 32
-175 -33
-32 33 175
-176 -174
-176 -175
174 175 176
-177 32
-177 33
-32 -33 177
-178 173
-178 -176
-173 176 178
-179 -173
-179 176
173 -176 179
-180 -178
-180 -179
178 179 180
-181 -173
-181 -176
173 176 181
-182 -177
-182 -181
177 181 182
-183 -33
-183 34
33 -34 183
-184 33
-184 -34
-33 34 184
-185 -183
-185 -184
183 184 185
-186 33
-186 34
-33 -34 186
-187 182
-187 -185
-182 185 187
-188 -182
-188 185
182 -185 188
-189 -187
-189 -188
187 188 189
-190 -182
-190 -185
182 185 190
-191 -186
-191 -190
186 190 191
-192 -34
-192 35
34 -35 192
-193 34
-193 -35
-34 35 193
-194 -192
-194 -193
192 193 194
-195 34
-195 35
-34 -35 195
-196 191
-196 -194
-191 194 196
-197 -191
-197 194
191 -194 197
-198 -196
-198 -197
196 197 198
-199 -191
-199 -194
191 194 199
-200 -195
-200 -199
195 199 200
-201 -35
-201 36
35 -36 201
-202 35
-202 -36
-35 36 202
-203 -201
-203 -202
201 202 203
-204 35
-204 36
-35 -36 204
-205 200
-205 -203
-200 203 205
-206 -200
-206 203
200 -203 206
-207 -205
-207 -206
205 206 207
-208 -200
-208 -203
200 203 208
-209 -204
-209 -208
204 208 209
-210 -36
-210 37
36 -37 210
-211 36
-211 -37
-36 37 211
-212 -210
-212 -211
210 211 212
-213 36
-213 37
-36 -37 213
-214 209
-214 -212
-209 212 214
-215 -209
-215 212
209 -212 215
-216 -214
-216 -215
214 215 216
-217 -209
-217 -212
209 212 217
-218 -213
-218 -217
213 217 218
-219 -37
-219 38
37 -38 219
-220 37
-220 -38
-37 38 220
-221 -219
-221 -220
219 220 221
-222 37
-222 38
-37 -38 222
-223 218
-223 -221
-218 221 223
-224 -218
-224 221
218 -221 224
-225 -223
-225 -224
223 224 225
-226 -218
-226 -221
218 221 226
-227 -222
-227 -226
222 226 227
-228 -38
-228 39
38 -39 228
-229 38
-229 -39
-38 39 229
-230 -228
-230 -229
228 229 230
-231 38
-231 39
-38 -39 231
-232 227
-232 -230
-227 230 232
-233 -227
-233 230
227 -230 233
-234 -232
-234 -233
232 233 234
-235 -227
-235 -230
227 230 235
-236 -231
-236 -235
231 235 236
-237 -39
-237 40
39 -40 237
-238 39
-238 -40
-39 40 238
-239 -237
-239 -238
237 238 239
-240 39
-240 40
-39 -40 240
-241 236
-241 -239
-236 239 241
-242 -236
-242 239
236 -239 242
-243 -241
-243 -242
241 242 243
-244 -236
-244 -239
236 239 244
-245 -240
-245 -244
240 244 245
-246 -40
-246 41
40 -41 246
-247 40
-247 -41
-40 41 247
-248 -246
-248 -247
246 247 248
-249 40
-249 41
-40 -41 249
-250 245
-250 -248
-245 248 250
-251 -245
-251 248
245 -248 251
-252 -250
-252 -251
250 251 252
-253 -245
-253 -248
245 248 253
-254 -249
-254 -253
249 253 254
-255 -41
-255 42
41 -42 255
-256 41
-256 -42
-41 42 256
-257 -255
-257 -256
255 256 257
-258 41
-258 42
-41 -42 258
-259 254
-259 -257
-254 257 259
-260 -254
-260 257
254 -257 260
-261 -259
-261 -260
259 260 261
-262 -254
-262 -257
254 257 262
-263 -258
-263 -262
258 262 263
-264 -42
-264 43
42 -43 264
-265 42
-265 -43
-42 43 265
-266 -264
-266 -265
264 265 266
-267 42
-267 43
-42 -43 267
-268 263
-268 -266
-263 266 268
-269 -263
-269 266
263 -266 269
-270 -268
-270 -269
268 269 270
-271 -263
-271 -266
263 266 271
-272 -267
-272 -271
267 271 272
-273 -43
-273 44
43 -44 273
-274 43
-274 -44
-43 44 274
-275 -273
-275 -274
273 274 275
-276 43
-276 44
-43 -44 276
-277 272
-277 -275
-272 275 277
-278 -272
-278 275
272 -275 278
-279 -277
-279 -278
277 278 279
-280 -272
-280 -275
272 275 280
-281 -276
-281 -280
276 280 281
-282 -44
-282 45
44 -45 282
-283 44
-283 -45
-44 45 283
-284 -282
-284 -283
282 283 284
-285 44
-285 45
-44 -45 285
-286 281
-286 -284
-281 284 286
-287 -281
-287 284
281 -284 287
-288 -286
-288 -287
286 287 288
-289 -281
-289 -284
281 284 289
-290 -285
-290 -289
285 289 290
-291 -45
-291 46
45 -46 291
-292 45
-292 -46
-45 46 292
-293 -291
-293 -292
291 292 293
-294 45
-294 46
-45 -46 294
-295 290
-295 -293
-290 293 295
-296 -290
-296 293
290 -293 296
-297 -295
-297 -296
295 296 297
-298 -290
-298 -293
290 293 298
-299 -294
-299 -298
294 298 299
-300 -46
-300 47
46 -47 300
-301 46
-301 -47
-46 47 301
-302 -300
-302 -301
300 301 302
-303 46
-303 47
-46 -47 303
-304 299
-304 -302
-299 302 304
-305 -299
-305 302
299 -302 305
-306 -304
-306 -305
304 305 306
-307 -299
-307 -302
299 302 307
-308 -303
-308 -307
303 307 308
-309 -47
-309 48
47 -48 309
-310 47
-310 -48
-47 48 310
-311 -309
-311 -310
309 310 311
-312 47
-312 48
-47 -48 312
-313 308
-313 -311
-308 311 313
-314 -308
-314 311
308 -311 314
-315 -313
-315 -314
313 314 315
-316 -308
-316 -311
308 311 316
-317 -312
-317 -316
312 316 317
-318 -48
-318 49
48 -49 318
-319 48
-319 -49
-48 49 319
-320 -318
-320 -319
318 319 320
-321 48
-321 49
-48 -49 321
-322 317
-322 -320
-317 320 322
-323 -317
-323 320
317 -320 323
-324 -322
-324 -323
322 323 324
-325 -317
-325 -320
317 320 325
-326 -321
-326 -325
321 325 326
-327 -49
-327 50
49 -50 327
-328 49
-328 -50
-49 50 328
-329 -327
-329 -328
327 328 329
-330 49
-330 50
-49 -50 330
-331 326
-331 -329
-326 329 331
-332 -326
-332 329
326 -329 332
-333 -331
-333 -332
331 332 333
-334 -326
-334 -329
326 329 334
-335 -330
-335 -334
330 334 335
-336 -50
-336 51
50 -51 336
-337 50
-337 -51
-50 51 337
-338 -336
-338 -337
336 337 338
-339 50
-339 51
-50 -51 339
-340 335
-340 -338
-335 338 340
-341 -335
-341 338
335 -338 341
-342 -340
-342 -341
340 341 342
-343 -335
-343 -338
335 338 343
-344 -339
-344 -343
339 343 344
-345 -51
-345 52
51 -52 345
-346 51
-346 -52
-51 52 346
-347 -345
-347 -346
345 346 347
-348 51
-348 52
-51 -52 348
-349 344
-349 -347
-344 347 349
-350 -344
-350 347
344 -347 350
-351 -349
-351 -350
349 350 351
-352 -344
-352 -347
344 347 352
-353 -348
-353 -352
348 352 353
-354 -52
-354 53
52 -53 354
-355 52
-355 -53
-52 53 355
-356 -354
-356 -355
354 355 356
-357 52
-357 53
-52 -53 357
-358 353
-358 -356
-353 356 358
-359 -353
-359 356
353 -356 359
-360 -358
-360 -359
358 359 360
-361 -353
-361 -356
353 356 361
-362 -357
-362 -361
357 361 362
-363 22
-363 -90
-22 90 363
-364 -22
-364 24
22 -24 364
-365 -363
-365 -364
363 364 365
-366 22
-366 -99
-22 99 366
-367 -22
-367 25
22 -25 367
-368 -366
-368 -367
366 367 368
-369 22
-369 -108
-22 108 369
-370 -22
-370 26
22 -26 370
-371 -369
-371 -370
369 370 371
-372 22
-372 -117
-22 117 372
-373 -22
-373 27
22 -27 373
-374 -372
-374 -373
372 373 374
-375 22
-375 -126
-22 126 375
-376 -22
-376 28
22 -28 376
-377 -375
-377 -376
375 376 377
-378 22
-378 -135
-22 135 378
-379 -22
-379 29
22 -29 379
-380 -378
-380 -379
378 379 380
-381 22
-381 -144
-22 144 381
-382 -22
-382 30
22 -30 382
-383 -381
-383 -382
381 382 383
-384 22
-384 -153
-22 153 384
-385 -22
-385 31
22 -31 385
-386 -384
-386 -385
384 385 386
-387 22
-387 -162
-22 162 387
-388 -22
-388 32
22 -32 388
-389 -387
-389 -388
387 388 389
-390 22
-390 -171
-22 171 390
-391 -22
-391 33
22 -33 391
-392 -390
-392 -391
390 391 392
-393 22
-393 -180
-22 180 393
-394 -22
-394 34
22 -34 394
-395 -393
-395 -394
393 394 395
-396 22
-396 -189
-22 189 396
-397 -22
-397 35
22 -35 397
-398 -396
-398 -397
396 397 398
-399 22
-399 -198
-22 198 399
-400 -22
-400 36
22 -36 400
-401 -399
-401 -400
399 400 401
-402 22
-402 -207
-22 207 402
-403 -22
-403 37
22 -37 403
-404 -402
-404 -403
402 403 404
-405 22
-405 -216
-22 216 405
-406 -22
-406 38
22 -38 406
-407 -405
-407 -406
405 406 407
-408 22
-408 -225
-22 225 408
-409 -22
-409 39
22 -39 409
-410 -408
-410 -409
408 409 410
-411 22
-411 -234
-22 234 411
-412 -22
-412 40
22 -40 412
-413 -411
-413 -412
411 412 413
-414 22
-414 -243
-22 243 414
-415 -22
-415 41
22 -41 415
-416 -414
-416 -415
414 415 416
-417 22
-417 -252
-22 252 417
-418 -22
-418 42
22 -42 418
-419 -417
-419 -418
417 418 419
-420 22
-420 -261
-22 261 420
-421 -22
-421 43
22 -43 421
-422 -420
-422 -421
420 421 422
-423 22
-423 -270
-22 270 423
-424 -22
-424 44
22 -44 424
-425 -423
-425 -424
423 424 425
-426 22
-426 -279
-22 279 426
-427 -22
-427 45
22 -45 427
-428 -426
-428 -427
426 427 428
-429 22
-429 -288
-22 288 429
-430 -22
-430 46
22 -46 430
-431 -429
-431 -430
429 430 431
-432 22
-432 -297
-22 297 432
-433 -22
-433 47
22 -47 433
-434 -432
-434 -433
432 433 434
-435 22
-435 -306
-22 306 435
-436 -22
-436 48
22 -48 436
-437 -435
-437 -436
435 436 437
-438 22
-438 -315
-22 315 438
-439 -22
-439 49
22 -49 439
-440 -438
-440 -439
438 439 440
-441 22
-441 -324
-22 324 441
-442 -22
-442 50
22 -50 442
-443 -441
-443 -442
441 442 443
-444 22
-444 -333
-22 333 444
-445 -22
-445 51
22 -51 445
-446 -444
-446 -445
444 445 446
-447 22
-447 -342
-22 342 447
-448 -22
-448 52
22 -52 448
-449 -447
-449 -448
447 448 449
-450 22
-450 -351
-22 351 450
-451 -22
-451 53
22 -53 451
-452 -450
-452 -451
450 451 452
-453 22
-453 -360
-22 360 453
-454 1
-454 83
-1 -83 454
-455 -83
-455 84
83 -84 455
-456 -454
-456 -455
454 455 456
-457 2
-457 83
-2 -83 457
-458 -83
-458 -365
83 365 458
-459 -457
-459 -458
457 458 459
-460 3
-460 83
-3 -83 460
-461 -83
-461 -368
83 368 461
-462 -460
-462 -461
460 461 462
-463 4
-463 83
-4 -83 463
-464 -83
-464 -371
83 371 464
-465 -463
-465 -464
463 464 465
-466 5
-466 83
-5 -83 466
-467 -83
-467 -374
83 374 467
-468 -466
-468 -467
466 467 468
-469 6
-469 83
-6 -83 469
-470 -83
-470 -377
83 377 470
-471 -469
-471 -470
469 470 471
-472 7
-472 83
-7 -83 472
-473 -83
-473 -380
83 380 473
-474 -472
-474 -473
472 473 474
-475 8
-475 83
-8 -83 475
-476 -83
-476 -383
83 383 476
-477 -475
-477 -476
475 476 477
-478 9
-478 83
-9 -83 478
-479 -83
-479 -386
83 386 479
-480 -478
-480 -479
478 479 480
-481 10
-481 83
-10 -83 481
-482 -83
-482 -389
83 389 482
-483 -481
-483 -482
481 482 483
-484 11
-484 83
-11 -83 484
-485 -83
-485 -392
83 392 485
-486 -484
-486 -485
484 485 486
-487 12
-487 83
-12 -83 487
-488 -83
-488 -395
83 395 488
-489 -487
-489 -488
487 488 489
-490 13
-490 83
-13 -83 490
-491 -83
-491 -398
83 398 491
-492 -490
-492 -491
490 491 492
-493 14
-493 83
-14 -83 493
-494 -83
-494 -401
83 401 494
-495 -493
-495 -494
493 494 495
-496 15
-496 83
-15 -83 496
-497 -83
-497 -404
83 404 497
-498 -496
-498 -497
496 497 498
-499 16
-499 83
-16 -83 499
-500 -83
-500 -407
83 407 500
-501 -499
-501 -500
499 500 501
-502 17
-502 83
-17 -83 502
-503 -83
-503 -410
83 410 503
-504 -502
-504 -503
502 503 504
-505 18
-505 83
-18 -83 505
-506 -83
-506 -413
83 413 506
-507 -505
-507 -506
505 506 507
-508 19
-508 83
-19 -83 508
-509 -83
-509 -416
83 416 509
-510 -508
-510 -509
508 509 510
-511 20
-511 83
-20 -83 511
-512 -83
-512 -419
83 419 512
-513 -511
-513 -512
511 512 513
-514 21
-514 83
-21 -83 514
-515 -83
-515 -422
83 422 515
-516 -514
-516 -515
514 515 516
-517 -83
-517 -425
83 425 517
-518 -83
-518 -428
83 428 518
-519 -83
-519 -431
83 431 519
-520 -83
-520 -434
83 434 520
-521 -83
-521 -437
83 437 521
-522 -83
-522 -440
83 440 522
-523 -83
-523 -443
83 443 523
-524 -83
-524 -446
83 446 524
-525 -83
-525 -449
83 449 525
-526 -83
-526 -452
83 452 526
-527 -83
-527 453
83 -453 527
-528 -53
-528 362
53 -362 528
-529 22
-529 -528
-22 528 529
529
